Automatic mesh
0
MonkhorstPack
 6  6  1
 0 0  0
